(set-info :Origin "This instance was generated by: BanditFuzz-- an RL fuzzer for SMT solvers" )
(set-info :Author "Joe Scott, Fed Mora, Vijay Ganesh" )
(set-info :Contact "Joe Scott, joseph.scott@uwaterloo.ca")
(set-logic QF_BV)
(declare-const bool_0 Bool)
(declare-const bool_1 Bool)
(declare-const bool_2 Bool)
(declare-const bool_3 Bool)
(declare-const bool_4 Bool)
(declare-const bv_0 (_ BitVec 32))
(declare-const bv_1 (_ BitVec 32))
(declare-const bv_2 (_ BitVec 32))
(declare-const bv_3 (_ BitVec 32))
(declare-const bv_4 (_ BitVec 32))
(assert (or (or (bvult bv_3 bv_2) (bvsgt bv_2 #x79ff179d )) (=> (bvslt bv_2 bv_2) (bvsle bv_2 #x436a3946 ))))
(assert (bvsgt (bvshl (bvand bv_3 bv_2) (bvsmod #x65d0e320  #x449aec32 )) (bvlshr (bvsdiv #x19fb4128  #xbfd3ecf6 ) (bvand bv_3 bv_0))))
(assert (bvult (bvadd (bvsdiv #xc52a96e2  #x9acf76d6 ) (bvmul bv_3 bv_2)) (bvnor (bvadd #x4c9cf4c6  #x69326302 ) (bvshl bv_3 #xc502b331 ))))
(assert (bvugt (bvsrem (bvsub #xb60ac100  #xea403323 ) (bvadd #x5c2c631d  bv_4)) (bvashr (bvsdiv bv_1 bv_0) (bvxor bv_3 bv_3))))
(assert (not (bvugt (bvadd bv_1 #x5ed64818 ) (bvlshr bv_3 bv_4))))
(check-sat)
(exit)
